
  32    4
  10   10   10   10

   0   0   0   0   0   3 2 30 31 
   4  10  10  10  10   1 3 
   9  10  10  10  10   2 29 4 
   6  10  10  10  10   1 5 
   4  10  10  10  10   1 6 
   5  10  10  10  10   2 28 7 
   8  10  10  10  10   1 8 
   5  10  10  10  10   1 9 
   5  10  10  10  10   1 10 
   3  10  10  10  10   1 11 
   4  10  10  10  10   3 27 26 12 
   9  10  10  10  10   1 13 
   9  10  10  10  10   1 14 
   7  10  10  10  10   1 15 
   9  10  10  10  10   1 16 
   3  10  10  10  10   1 17 
   7  10  10  10  10   1 18 
   7  10  10  10  10   1 19 
   4  10  10  10  10   1 20 
   9  10  10  10  10   1 21 
   8  10  10  10  10   1 22 
   7  10  10  10  10   1 23 
   5  10  10  10  10   1 24 
   8  10  10  10  10   1 25 
   5  10  10  10  10   1 32
   7  10  10  10  10   1 32
   4  10  10  10  10   1 32
   3  10  10  10  10   1 32
   2  10  10  10  10   1 32
   2  10  10  10  10   1 32
   8  10  10  10  10   1 32
   0   0   0   0   0   0 
